NAME : kroA100-C-3-1-a__wo_group_embedding_same_priority_ls20__24453.tour
COMMENT : Length = 24453.000
COMMENT : Generated by evaluate_ctspd.py for wo_group_embedding_same_priority_ls20
TYPE : TOUR
DIMENSION : 100
TOUR_SECTION
65
4
66
70
22
16
88
53
19
75
92
1
63
6
49
90
79
94
18
24
38
99
36
84
10
72
21
74
59
17
15
11
45
32
47
98
23
91
77
60
62
35
86
27
20
12
55
83
34
29
46
43
3
41
71
100
14
48
30
39
96
78
52
5
37
33
76
13
95
82
44
50
73
69
28
93
58
61
51
87
57
7
9
25
81
85
68
2
54
40
64
67
8
42
89
31
80
56
97
26
-1
EOF
